10
1 0 69
3 1 73
4 0 80
4 2 151
4 3 79
5 0 139
5 1 98
5 2 60
5 3 109
5 4 135
6 1 52
6 2 112
6 3 125
6 4 113
6 5 64
7 0 25
7 1 23
7 3 6
7 4 94
7 5 53
7 6 10
8 1 126
8 2 132
8 4 50
8 6 98
9 0 110
9 1 75
9 4 17
9 6 90
9 8 150
